NAME : A056-10f.3263.tour
COMMENT : Cost = 0_3263
COMMENT : Found by LKH [Keld Helsgaun] Mon Jul  4 19:37:19 2016
TYPE : TOUR
DIMENSION : 65
TOUR_SECTION
1
34
59
30
28
50
46
31
47
61
35
49
4
7
6
48
65
3
15
16
17
18
64
33
9
37
10
38
12
52
60
21
41
20
19
57
13
40
39
11
53
56
32
54
44
45
29
58
2
27
26
25
55
63
43
23
42
22
51
24
62
14
36
5
8
-1
EOF
